% Data file generated from RandomInstances/10_0.95_3.col DIMACS file
size = 10;

chi = 9;

adjacency = [|0,1,1,1,1,1,1,1,1,1,
|1,0,1,1,1,1,1,1,1,1,
|1,1,0,1,1,0,1,0,1,1,
|1,1,1,0,1,1,1,1,1,1,
|1,1,1,1,0,1,1,1,1,1,
|1,1,0,1,1,0,1,1,1,1,
|1,1,1,1,1,1,0,1,1,1,
|1,1,0,1,1,1,1,0,1,1,
|1,1,1,1,1,1,1,1,0,1,
|1,1,1,1,1,1,1,1,1,0,
|];